src/LKH/IO/anjos-70-01.tour
NAME : anjos-70-01.-178.tour
COMMENT : Length = -178
COMMENT : Found by LKH [Keld Helsgaun] Sun Apr 13 17:05:01 2025
TYPE : TOUR
DIMENSION : 70
TOUR_SECTION
1
4
16
17
45
32
31
28
53
22
50
15
67
68
25
12
70
44
11
39
49
43
36
14
13
20
42
60
6
54
7
23
21
38
66
37
5
47
30
19
40
8
61
59
3
24
58
46
35
27
48
51
65
2
41
62
69
63
56
33
10
52
18
34
29
57
26
64
55
9
-1
EOF
